\ LP format - for model browsing. Use MPS format to capture full model detail.
Minimize
  800 y_0 + 800 y_1 + 800 y_2 + 800 y_3 + 800 y_4 + 800 y_5 + 800 y_6
   + 800 y_7 + 800 y_8 + 800 y_9 + 800 y_10 + 800 y_11 + 800 y_12
   + 800 y_13 + 800 y_14 + 800 y_15 + 800 y_16 + 800 y_17 + 800 y_18
   + 800 y_19 + 800 y_20 + 800 y_21 + 800 y_22 + 800 y_23 + 800 y_24
   + 800 y_25 + 800 y_26 + 800 y_27 + 800 y_28 + 800 y_29 + 800 y_30
   + 800 y_31 + 800 y_32 + 800 y_33 + 800 y_34 + 800 y_35 + 800 y_36
   + 800 y_37 + 800 y_38 + 800 y_39 + 800 y_40 + 800 y_41 + 800 y_42
   + 800 y_43 + 800 y_44 + 800 y_45 + 800 y_46 + 800 y_47 + 800 y_48
   + 800 y_49 + 800 y_50 + 800 y_51 + 800 y_52 + 800 y_53 + 800 y_54
   + 800 y_55 + 800 y_56 + 800 y_57 + 800 y_58 + 800 y_59 + 800 y_60
   + 800 y_61 + 800 y_62 + 800 y_63 + 800 y_64 + 800 y_65 + 800 y_66
   + 800 y_67 + 800 y_68 + 800 y_69 + 800 y_70 + 800 y_71 + 800 y_72
   + 800 y_73 + 800 y_74 + 800 y_75 + 800 y_76 + 800 y_77 + 800 y_78
   + 800 y_79 + 800 y_80 + 800 y_81 + 800 y_82 + 800 y_83 + 800 y_84
   + 800 y_85 + 800 y_86 + 800 y_87 + 800 y_88 + 800 y_89 + 800 y_90
   + 800 y_91 + 800 y_92 + 800 y_93 + 800 y_94 + 4 x_8 + 4 x_9 + 8 x_10
   + 8 x_11 + 304 x_12 + 10 x_14 + 606 x_15 + 601 x_16 + 162 x_17
   + 162 x_18 + 154 x_19 + 1159 x_20 + 958 x_21 + 958 x_22 + 911 x_23
   + 911 x_24 + 1961 x_25 + 1961 x_26 + 11 x_27 + 11 x_28 + 8 x_29 + 8 x_30
   + 445 x_31 + 605 x_32 + 535 x_33 + x_34 + 43 x_35 + 448 x_36 + 8 x_37
   + 2034 x_38 + 48 x_39 + 48 x_40 + 48 x_41 + 48 x_42 + 356 x_43
   + 356 x_44 + 1346 x_45 + 1544 x_46 + 3391 x_47 + 1949 x_48 + 9 x_49
   + 9 x_50 + 638 x_51 + 796 x_52 + 6 x_53 + 4 x_54 + 698 x_55 + 892 x_56
   + 806 x_57 + 4 x_58 + 6 x_59 + 56 x_60 + 908 x_61 + 58 x_62 + 58 x_63
   + 194 x_64 + 437 x_65 + 6 x_66 + 5 x_67 + 1069 x_68 + 348 x_69
   + 2459 x_70 + 1736 x_71 + 269 x_72 + 269 x_73 + 56 x_74 + 56 x_75
   + 6 x_76 + 6 x_77 + 1288 x_78 + 1288 x_79 + 488 x_80 + 888 x_81 + 8 x_82
   + 8 x_83 + 1108 x_84 + 1088 x_85 + 6 x_86 + 6 x_87 + 704 x_88 + 198 x_89
   + 1106 x_90 + 656 x_91 + 3 x_92 + 3 x_93 + 1056 x_94 + 1059 x_95
   + 1630 x_96 + 7 x_97 + 4 x_98 + 6 x_99 + 1386 x_100 + 356 x_101
   + 155 x_102 + 155 x_103 + 354 x_104 + 1386 x_105 + 1305 x_106
   + 1305 x_107 + 1387 x_108 + 357 x_109 + 3 x_110 + 3 x_111 + 152 x_112
   + x_113 + 4 x_114 + 4 x_115 + 2207 x_116 + 1786 x_117 + 1387 x_118
   + 1387 x_119 + 1828 x_120 + 796 x_121 + 6 x_122 + 6 x_123 + 106 x_124
   + 3 x_125 + 291 x_126 + 2 x_127 + 8 x_128 + 6 x_129 + 605 x_130
   + 5 x_131 + 8 x_132 + 6 x_133 + 907 x_134 + 956 x_135 + 5 x_136
   + 859 x_137 + 1399 x_138 + 1809 x_139 + 2349 x_140 + 109 x_141
   + 109 x_142 + 8 x_143 + 8 x_144 + 156 x_145 + 4 x_146 + 5 x_147
   + 2 x_148 + 4 x_149 + 156 x_150 + 4 x_151 + 604 x_152 + 157 x_153
   + 7 x_154 + 4 x_155 + 5 x_156 + 4 x_157 + 2 x_158 + 557 x_159 + 5 x_160
   + 1607 x_161 + 1055 x_162 + 157 x_163 + 7 x_164 + 706 x_165 + 706 x_166
Subject To
 cover_lg_0: y_0 + x_0 + x_8 + x_9 + x_53 + x_54 + x_76 + x_77 + x_100
   + x_101 + x_122 + x_123 + x_145 + x_146 = 1
 cover_lg_1: y_1 + x_0 + x_8 + x_9 + x_53 + x_54 + x_76 + x_77 + x_100
   + x_101 + x_103 + x_115 + x_119 + x_122 + x_123 + x_145 + x_146 + x_147
   + x_148 + x_153 + x_154 + x_159 + x_160 + x_163 + x_164 = 1
 cover_lg_2: y_2 + x_0 + x_8 + x_9 + x_53 + x_54 + x_55 + x_57 + x_61
   + x_66 + x_67 = 1
 cover_lg_3: y_3 + x_0 + x_8 + x_9 + x_53 + x_54 + x_55 + x_57 + x_61
   + x_66 + x_67 = 1
 cover_lg_4: y_4 + x_0 + x_8 + x_9 + x_31 + x_32 + x_36 + x_38 + x_45
   + x_47 + x_51 + x_52 + x_81 = 1
 cover_lg_5: y_5 + x_0 + x_8 + x_9 + x_31 + x_32 + x_36 + x_38 + x_45
   + x_47 + x_51 + x_52 + x_110 + x_166 = 1
 cover_lg_6: y_6 + x_0 + x_146 + x_151 + x_154 + x_159 + x_161 + x_164
   + x_165 + x_166 = 1
 cover_lg_7: y_7 + x_0 + x_146 + x_151 + x_154 + x_159 + x_161 + x_164
   + x_165 + x_166 = 1
 cover_lg_8: y_8 + x_1 + x_10 + x_11 + x_23 + x_24 + x_27 + x_28 + x_34
   + x_49 + x_50 + x_55 + x_56 + x_68 + x_69 + x_72 + x_73 + x_124 + x_125
   + x_137 + x_138 + x_141 + x_142 = 1
 cover_lg_9: y_9 + x_1 + x_35 + x_37 + x_39 + x_40 + x_41 + x_42 + x_43
   + x_44 + x_48 + x_49 + x_50 + x_56 + x_80 + x_89 = 1
 cover_lg_10: y_10 + x_1 + x_48 + x_80 + x_89 + x_106 + x_107 + x_116 = 1
 cover_lg_11: y_11 + x_1 = 1
 cover_lg_12: y_12 + x_1 = 1
 cover_lg_13: y_13 + x_1 + x_10 + x_11 + x_55 + x_78 + x_79 + x_102 + x_103
   + x_124 + x_147 = 1
 cover_lg_14: y_14 + x_2 + x_57 + x_58 + x_104 + x_126 + x_127 + x_149 = 1
 cover_lg_15: y_15 + x_2 + x_57 + x_58 + x_104 + x_105 + x_126 + x_127
   + x_149 = 1
 cover_lg_16: y_16 + x_2 + x_12 + x_14 + x_15 + x_20 + x_25 + x_26 + x_111
   + x_122 + x_123 + x_124 + x_126 + x_128 + x_129 + x_130 + x_131 + x_132
   + x_133 + x_136 + x_137 + x_138 + x_139 + x_140 + x_141 + x_142 + x_143
   + x_144 = 1
 cover_lg_17: y_17 + x_2 + x_12 + x_14 + x_15 + x_20 + x_25 + x_26 + x_35
   + x_37 + x_39 + x_40 + x_41 + x_42 + x_43 + x_44 + x_49 + x_50 + x_122
   + x_123 + x_124 + x_126 + x_128 + x_129 + x_130 + x_131 + x_132 + x_133
   + x_136 + x_137 + x_138 + x_139 + x_140 + x_141 + x_142 + x_143 + x_144
   = 1
 cover_lg_18: y_18 + x_2 + x_12 + x_14 + x_15 + x_20 + x_25 + x_26 + x_35
   + x_37 + x_39 + x_40 + x_41 + x_42 + x_43 + x_44 + x_49 + x_50 + x_122
   + x_123 + x_124 + x_126 + x_128 + x_129 + x_130 + x_131 + x_132 + x_133
   + x_136 + x_137 + x_138 + x_139 + x_140 + x_141 + x_142 + x_143 + x_144
   = 1
 cover_lg_19: y_19 + x_2 + x_12 + x_14 + x_15 + x_20 + x_25 + x_26 + x_35
   + x_37 + x_39 + x_40 + x_41 + x_42 + x_43 + x_44 + x_49 + x_50 + x_111
   = 1
 cover_lg_20: y_20 + x_2 + x_12 + x_14 + x_20 + x_26 + x_32 + x_35 + x_37
   + x_40 + x_41 + x_43 + x_50 + x_52 + x_96 + x_127 + x_134 + x_135 = 1
 cover_lg_21: y_21 + x_2 + x_12 + x_14 + x_20 + x_26 + x_32 + x_35 + x_37
   + x_40 + x_41 + x_43 + x_50 + x_52 + x_96 + x_127 + x_134 + x_135 = 1
 cover_lg_22: y_22 + x_2 + x_12 + x_35 + x_57 + x_58 + x_80 + x_81 + x_104
   + x_126 + x_127 + x_149 = 1
 cover_lg_23: y_23 + x_3 + x_13 + x_14 + x_36 + x_37 + x_59 + x_60 + x_82
   + x_83 + x_106 + x_128 + x_129 + x_150 + x_151 = 1
 cover_lg_24: y_24 + x_3 + x_10 + x_11 + x_12 + x_13 + x_17 + x_18 + x_19
   + x_20 + x_21 + x_22 + x_23 + x_24 + x_27 + x_28 + x_30 + x_124 + x_125
   + x_135 + x_137 + x_138 + x_141 + x_142 = 1
 cover_lg_25: y_25 + x_3 + x_10 + x_11 + x_12 + x_13 + x_17 + x_18 + x_19
   + x_20 + x_21 + x_22 + x_23 + x_24 + x_27 + x_28 + x_30 + x_124 + x_125
   + x_135 + x_137 + x_138 + x_141 + x_142 = 1
 cover_lg_26: y_26 + x_3 + x_11 + x_13 + x_18 + x_21 + x_22 + x_24 + x_28
   + x_59 + x_60 + x_63 + x_68 + x_70 + x_75 + x_117 = 1
 cover_lg_27: y_27 + x_3 + x_11 + x_13 + x_18 + x_21 + x_22 + x_24 + x_28
   + x_59 + x_60 + x_63 + x_68 + x_70 + x_75 + x_117 = 1
 cover_lg_28: y_28 + x_3 + x_10 + x_11 + x_13 + x_17 + x_18 + x_21 + x_22
   + x_23 + x_24 + x_27 + x_28 + x_29 + x_30 + x_100 + x_102 + x_103
   + x_105 + x_108 + x_112 + x_118 + x_119 + x_120 + x_146 + x_151 + x_154
   + x_156 + x_159 + x_161 + x_164 = 1
 cover_lg_29: y_29 + x_3 + x_10 + x_11 + x_13 + x_17 + x_18 + x_21 + x_22
   + x_23 + x_24 + x_27 + x_28 + x_29 + x_30 + x_146 + x_151 + x_154
   + x_156 + x_159 + x_161 + x_164 = 1
 cover_lg_30: y_30 + x_3 + x_8 + x_10 + x_11 + x_13 + x_17 + x_18 + x_21
   + x_23 + x_24 + x_27 + x_28 + x_29 + x_30 + x_81 + x_85 + x_91 + x_106
   + x_110 + x_111 + x_114 + x_115 + x_116 = 1
 cover_lg_31: y_31 + x_3 + x_8 + x_10 + x_11 + x_13 + x_17 + x_18 + x_21
   + x_23 + x_24 + x_27 + x_28 + x_29 + x_30 + x_81 + x_85 + x_91 = 1
 cover_lg_32: y_32 + x_3 + x_8 + x_9 + x_13 + x_17 + x_18 + x_23 + x_24
   + x_25 + x_26 + x_27 + x_28 + x_29 + x_30 + x_31 + x_36 + x_39 + x_40
   + x_45 + x_47 + x_49 + x_50 + x_51 + x_53 + x_123 + x_129 + x_132
   + x_142 + x_144 = 1
 cover_lg_33: y_33 + x_3 + x_8 + x_9 + x_13 + x_17 + x_18 + x_23 + x_24
   + x_25 + x_26 + x_27 + x_28 + x_29 + x_30 + x_31 + x_36 + x_39 + x_40
   + x_45 + x_47 + x_49 + x_50 + x_51 + x_53 + x_123 + x_129 + x_132
   + x_142 + x_144 = 1
 cover_lg_34: y_34 + x_15 + x_16 + x_38 + x_61 + x_84 + x_85 + x_107
   + x_130 + x_152 = 1
 cover_lg_35: y_35 + x_38 + x_47 + x_51 + x_52 + x_62 + x_63 + x_64 + x_65
   + x_70 + x_71 + x_74 + x_75 + x_106 + x_107 + x_116 + x_117 + x_120
   + x_121 + x_134 = 1
 cover_lg_36: y_36 + x_38 + x_47 + x_51 + x_52 + x_56 + x_62 + x_63 + x_64
   + x_65 + x_70 + x_71 + x_74 + x_75 + x_117 + x_120 + x_121 + x_134 = 1
 cover_lg_37: y_37 + x_46 + x_48 + x_62 + x_65 + x_71 + x_73 + x_74 + x_80
   + x_89 + x_96 + x_134 + x_135 + x_165 + x_166 = 1
 cover_lg_38: y_38 + x_80 + x_81 + x_89 + x_96 + x_127 + x_134 + x_135
   + x_165 = 1
 cover_lg_39: y_39 + x_15 + x_25 + x_31 + x_36 + x_38 + x_39 + x_42 + x_44
   + x_45 + x_47 + x_49 + x_51 + x_80 + x_89 + x_113 = 1
 cover_lg_40: y_40 + x_15 + x_25 + x_31 + x_36 + x_38 + x_39 + x_42 + x_44
   + x_45 + x_47 + x_49 + x_51 + x_80 + x_89 + x_123 + x_124 + x_126
   + x_129 + x_130 + x_132 + x_133 + x_142 + x_144 = 1
 cover_lg_41: y_41 + x_15 + x_38 + x_61 + x_84 + x_85 + x_107 + x_130
   + x_152 = 1
 cover_lg_42: y_42 + x_4 + x_35 + x_39 + x_40 + x_41 + x_42 + x_80 + x_81
   + x_86 + x_87 + x_88 + x_89 + x_153 + x_154 = 1
 cover_lg_43: y_43 + x_4 + x_35 + x_39 + x_40 + x_41 + x_42 + x_80 + x_81
   + x_86 + x_87 + x_88 + x_89 + x_97 + x_102 + x_114 + x_118 = 1
 cover_lg_44: y_44 + x_4 + x_16 = 1
 cover_lg_45: y_45 + x_4 + x_31 + x_32 = 1
 cover_lg_46: y_46 + x_4 + x_54 + x_60 + x_67 + x_68 + x_70 + x_101 + x_104
   + x_109 + x_117 + x_121 = 1
 cover_lg_47: y_47 + x_4 + x_54 + x_60 + x_67 + x_68 + x_70 + x_122 + x_128
   + x_131 + x_136 + x_137 + x_138 + x_139 + x_140 + x_141 + x_143 = 1
 cover_lg_48: y_48 + x_4 + x_54 + x_60 + x_67 + x_68 + x_70 + x_122 + x_128
   + x_131 + x_136 + x_137 + x_138 + x_139 + x_140 + x_141 + x_143 = 1
 cover_lg_49: y_49 + x_4 + x_54 + x_60 + x_68 + x_70 + x_100 + x_105
   + x_108 + x_118 + x_119 + x_120 + x_122 + x_128 + x_131 + x_137 + x_139
   + x_141 + x_143 = 1
 cover_lg_50: y_50 + x_5 + x_12 + x_17 + x_18 + x_19 + x_20 + x_108 + x_109
   + x_110 + x_111 + x_155 + x_156 = 1
 cover_lg_51: y_51 + x_5 + x_12 + x_17 + x_18 + x_19 + x_20 + x_108 + x_109
   + x_110 + x_111 + x_155 + x_156 = 1
 cover_lg_52: y_52 + x_5 + x_34 + x_81 + x_86 + x_87 + x_88 + x_90 + x_91
   + x_97 = 1
 cover_lg_53: y_53 + x_5 + x_81 + x_86 + x_87 + x_88 + x_90 + x_91 + x_97
   = 1
 cover_lg_54: y_54 + x_5 + x_19 + x_53 + x_55 + x_57 + x_61 + x_64 + x_66
   + x_76 + x_77 + x_79 + x_82 + x_83 + x_84 + x_85 + x_86 + x_87 + x_88
   + x_90 + x_91 + x_92 + x_94 + x_95 + x_97 + x_98 + x_99 = 1
 cover_lg_55: y_55 + x_5 + x_19 + x_53 + x_55 + x_57 + x_61 + x_64 + x_66
   + x_76 + x_77 + x_79 + x_82 + x_83 + x_84 + x_85 + x_86 + x_87 + x_88
   + x_90 + x_91 + x_92 + x_94 + x_95 + x_97 + x_98 + x_99 = 1
 cover_lg_56: y_56 + x_5 + x_9 + x_19 + x_22 + x_53 + x_55 + x_57 + x_61
   + x_64 + x_66 + x_107 = 1
 cover_lg_57: y_57 + x_5 + x_9 + x_19 + x_22 + x_53 + x_55 + x_57 + x_61
   + x_64 + x_66 + x_100 + x_102 + x_103 + x_105 + x_107 + x_108 + x_112
   + x_118 + x_119 + x_120 = 1
 cover_lg_58: y_58 + x_5 + x_19 + x_41 + x_42 + x_64 + x_88 + x_89 + x_133
   + x_155 = 1
 cover_lg_59: y_59 + x_21 + x_22 + x_43 + x_44 + x_66 + x_67 + x_90 + x_91
   + x_112 + x_113 + x_135 + x_136 + x_157 + x_158 = 1
 cover_lg_60: y_60 + x_14 + x_15 + x_25 + x_26 + x_29 + x_36 + x_55 + x_59
   + x_60 + x_61 + x_68 + x_69 + x_72 + x_73 + x_82 + x_83 + x_84 + x_85
   + x_94 + x_95 + x_98 + x_99 + x_128 + x_129 + x_130 + x_131 + x_132
   + x_133 + x_139 + x_140 + x_143 + x_144 = 1
 cover_lg_61: y_61 + x_14 + x_15 + x_25 + x_26 + x_29 + x_36 + x_55 + x_59
   + x_60 + x_61 + x_68 + x_69 + x_72 + x_73 + x_82 + x_83 + x_84 + x_85
   + x_94 + x_95 + x_98 + x_99 + x_128 + x_129 + x_130 + x_131 + x_132
   + x_133 + x_139 + x_140 + x_143 + x_144 = 1
 cover_lg_62: y_62 + x_58 + x_69 + x_72 + x_100 + x_101 + x_102 + x_103
   + x_104 + x_105 + x_108 + x_109 + x_110 + x_112 + x_113 + x_114 + x_115
   + x_118 + x_119 + x_120 + x_121 + x_127 = 1
 cover_lg_63: y_63 + x_46 + x_48 + x_58 + x_62 + x_65 + x_69 + x_71 + x_72
   + x_73 + x_74 + x_100 + x_101 + x_102 + x_103 + x_104 + x_105 + x_108
   + x_109 + x_112 + x_113 + x_114 + x_115 + x_118 + x_119 + x_120 + x_121
   = 1
 cover_lg_64: y_64 + x_46 + x_48 + x_58 + x_59 + x_62 + x_63 + x_65 + x_69
   + x_71 + x_72 + x_73 + x_74 + x_75 + x_158 = 1
 cover_lg_65: y_65 + x_46 + x_48 + x_58 + x_59 + x_62 + x_63 + x_65 + x_69
   + x_71 + x_72 + x_73 + x_74 + x_75 + x_101 + x_104 + x_109 + x_117
   + x_121 = 1
 cover_lg_66: y_66 + x_21 + x_22 + x_43 + x_44 + x_66 + x_90 + x_91 + x_100
   + x_105 + x_108 + x_112 + x_118 + x_119 + x_120 + x_135 + x_157 = 1
 cover_lg_67: y_67 = 1
 cover_lg_68: y_68 = 1
 cover_lg_69: y_69 + x_10 + x_17 + x_19 + x_23 + x_27 + x_29 + x_30 + x_36
   + x_38 + x_47 + x_51 + x_52 + x_64 + x_76 + x_77 + x_82 + x_83 + x_84
   + x_85 + x_94 + x_95 + x_98 + x_99 + x_145 + x_146 + x_147 + x_149
   + x_150 + x_151 + x_152 + x_153 + x_154 + x_155 + x_156 + x_157 + x_158
   + x_159 + x_160 + x_161 + x_162 + x_163 + x_164 = 1
 cover_lg_70: y_70 + x_10 + x_17 + x_19 + x_23 + x_27 + x_29 + x_30 + x_36
   + x_38 + x_47 + x_51 + x_52 + x_64 + x_76 + x_77 + x_82 + x_83 + x_84
   + x_85 + x_94 + x_95 + x_98 + x_99 + x_145 + x_146 + x_147 + x_149
   + x_150 + x_151 + x_152 + x_153 + x_154 + x_155 + x_156 + x_157 + x_158
   + x_159 + x_160 + x_161 + x_162 + x_163 + x_164 = 1
 cover_lg_71: y_71 + x_145 + x_147 + x_149 + x_150 + x_152 + x_153 + x_155
   + x_157 + x_160 + x_162 + x_163 = 1
 cover_lg_72: y_72 + x_145 + x_147 + x_149 + x_150 + x_152 + x_153 + x_155
   + x_157 + x_160 + x_162 + x_163 = 1
 cover_lg_73: y_73 + x_14 + x_32 + x_37 + x_52 + x_59 + x_62 + x_63 + x_72
   + x_73 + x_74 + x_75 + x_76 + x_82 + x_86 + x_96 + x_98 + x_101 + x_109
   + x_121 + x_145 + x_150 + x_153 + x_163 = 1
 cover_lg_74: y_74 + x_14 + x_32 + x_37 + x_52 + x_59 + x_62 + x_63 + x_72
   + x_73 + x_74 + x_75 + x_76 + x_82 + x_86 + x_96 + x_98 + x_101 + x_109
   + x_121 + x_145 + x_150 + x_153 + x_163 = 1
 cover_lg_75: y_75 + x_6 + x_33 + x_45 + x_46 + x_78 + x_79 + x_92 + x_93
   + x_96 = 1
 cover_lg_76: y_76 + x_6 + x_33 + x_45 + x_46 + x_78 + x_79 + x_92 + x_93
   + x_96 = 1
 cover_lg_77: y_77 + x_6 + x_33 + x_45 + x_46 + x_78 + x_79 + x_92 + x_93
   + x_96 = 1
 cover_lg_78: y_78 + x_6 + x_33 + x_45 + x_46 + x_78 + x_79 + x_92 + x_93
   + x_96 = 1
 cover_lg_79: y_79 + x_6 + x_33 + x_56 + x_106 + x_107 + x_116 + x_125
   + x_148 = 1
 cover_lg_80: y_80 + x_6 + x_106 + x_107 + x_116 = 1
 cover_lg_81: y_81 + x_6 + x_20 + x_46 + x_48 + x_65 + x_77 + x_78 + x_79
   + x_83 + x_84 + x_87 + x_88 + x_90 + x_95 + x_97 + x_99 + x_134 + x_156
   = 1
 cover_lg_82: y_82 + x_6 + x_46 + x_48 + x_77 + x_78 + x_79 + x_83 + x_84
   + x_87 + x_88 + x_90 + x_95 + x_97 + x_99 + x_106 + x_114 + x_115
   + x_116 = 1
 cover_lg_83: y_83 + x_6 + x_23 + x_24 + x_25 + x_26 + x_45 + x_46 + x_47
   + x_48 + x_68 + x_70 + x_95 + x_114 + x_115 + x_116 + x_137 + x_138
   + x_139 + x_140 + x_159 + x_160 + x_161 + x_162 = 1
 cover_lg_84: y_84 + x_25 + x_26 + x_47 + x_48 + x_70 + x_71 + x_94 + x_95
   + x_116 + x_117 + x_139 + x_140 + x_161 + x_162 = 1
 cover_lg_85: y_85 + x_165 + x_166 = 1
 cover_lg_86: y_86 + x_165 + x_166 = 1
 cover_lg_87: y_87 + x_78 + x_93 = 1
 cover_lg_88: y_88 + x_78 + x_93 = 1
 cover_lg_89: y_89 + x_69 + x_71 + x_92 + x_93 + x_94 + x_117 = 1
 cover_lg_90: y_90 + x_7 = 1
 cover_lg_91: y_91 + x_7 = 1
 cover_lg_92: y_92 + x_7 = 1
 cover_lg_93: y_93 + x_7 = 1
 cover_lg_94: y_94 + x_7 + x_138 + x_140 = 1
 select_ac_0: x_0 + x_8 + x_9 + x_31 + x_32 + x_53 + x_54 + x_76 + x_77
   + x_100 + x_101 + x_122 + x_123 + x_145 + x_146 <= 1
 select_ac_1: x_1 + x_10 + x_11 + x_33 + x_34 + x_55 + x_56 + x_78 + x_79
   + x_102 + x_103 + x_124 + x_125 + x_147 + x_148 <= 1
 select_ac_2: x_2 + x_12 + x_35 + x_57 + x_58 + x_80 + x_81 + x_104 + x_126
   + x_127 + x_149 <= 1
 select_ac_3: x_3 + x_13 + x_14 + x_36 + x_37 + x_59 + x_60 + x_82 + x_83
   + x_105 + x_106 + x_128 + x_129 + x_150 + x_151 <= 1
 select_ac_4: x_15 + x_16 + x_38 + x_61 + x_84 + x_85 + x_107 + x_130
   + x_152 <= 1
 select_ac_5: x_4 + x_17 + x_18 + x_39 + x_40 + x_62 + x_63 + x_86 + x_87
   + x_108 + x_109 + x_131 + x_132 + x_153 + x_154 <= 1
 select_ac_6: x_5 + x_19 + x_20 + x_41 + x_42 + x_64 + x_65 + x_88 + x_89
   + x_110 + x_111 + x_133 + x_134 + x_155 + x_156 <= 1
 select_ac_7: x_21 + x_22 + x_43 + x_44 + x_66 + x_67 + x_90 + x_91 + x_112
   + x_113 + x_135 + x_136 + x_157 + x_158 <= 1
 select_ac_8: x_6 + x_23 + x_24 + x_45 + x_46 + x_68 + x_69 + x_92 + x_93
   + x_114 + x_115 + x_137 + x_138 + x_159 + x_160 <= 1
 select_ac_9: x_25 + x_26 + x_47 + x_48 + x_70 + x_71 + x_94 + x_95 + x_116
   + x_117 + x_139 + x_140 + x_161 + x_162 <= 1
 select_ac_10: x_7 + x_27 + x_28 + x_49 + x_50 + x_72 + x_73 + x_96 + x_97
   + x_118 + x_119 + x_141 + x_142 + x_163 + x_164 <= 1
 select_ac_11: x_29 + x_30 + x_51 + x_52 + x_74 + x_75 + x_98 + x_99
   + x_120 + x_121 + x_143 + x_144 + x_165 + x_166 <= 1
Bounds
 y_0 <= 1
 y_1 <= 1
 y_2 <= 1
 y_3 <= 1
 y_4 <= 1
 y_5 <= 1
 y_6 <= 1
 y_7 <= 1
 y_8 <= 1
 y_9 <= 1
 y_10 <= 1
 y_11 <= 1
 y_12 <= 1
 y_13 <= 1
 y_14 <= 1
 y_15 <= 1
 y_16 <= 1
 y_17 <= 1
 y_18 <= 1
 y_19 <= 1
 y_20 <= 1
 y_21 <= 1
 y_22 <= 1
 y_23 <= 1
 y_24 <= 1
 y_25 <= 1
 y_26 <= 1
 y_27 <= 1
 y_28 <= 1
 y_29 <= 1
 y_30 <= 1
 y_31 <= 1
 y_32 <= 1
 y_33 <= 1
 y_34 <= 1
 y_35 <= 1
 y_36 <= 1
 y_37 <= 1
 y_38 <= 1
 y_39 <= 1
 y_40 <= 1
 y_41 <= 1
 y_42 <= 1
 y_43 <= 1
 y_44 <= 1
 y_45 <= 1
 y_46 <= 1
 y_47 <= 1
 y_48 <= 1
 y_49 <= 1
 y_50 <= 1
 y_51 <= 1
 y_52 <= 1
 y_53 <= 1
 y_54 <= 1
 y_55 <= 1
 y_56 <= 1
 y_57 <= 1
 y_58 <= 1
 y_59 <= 1
 y_60 <= 1
 y_61 <= 1
 y_62 <= 1
 y_63 <= 1
 y_64 <= 1
 y_65 <= 1
 y_66 <= 1
 y_67 <= 1
 y_68 <= 1
 y_69 <= 1
 y_70 <= 1
 y_71 <= 1
 y_72 <= 1
 y_73 <= 1
 y_74 <= 1
 y_75 <= 1
 y_76 <= 1
 y_77 <= 1
 y_78 <= 1
 y_79 <= 1
 y_80 <= 1
 y_81 <= 1
 y_82 <= 1
 y_83 <= 1
 y_84 <= 1
 y_85 <= 1
 y_86 <= 1
 y_87 <= 1
 y_88 <= 1
 y_89 <= 1
 y_90 <= 1
 y_91 <= 1
 y_92 <= 1
 y_93 <= 1
 y_94 <= 1
 x_0 <= 1
 x_1 <= 1
 x_2 <= 1
 x_3 <= 1
 x_4 <= 1
 x_5 <= 1
 x_6 <= 1
 x_7 <= 1
 x_8 <= 1
 x_9 <= 1
 x_10 <= 1
 x_11 <= 1
 x_12 <= 1
 x_13 <= 1
 x_14 <= 1
 x_15 <= 1
 x_16 <= 1
 x_17 <= 1
 x_18 <= 1
 x_19 <= 1
 x_20 <= 1
 x_21 <= 1
 x_22 <= 1
 x_23 <= 1
 x_24 <= 1
 x_25 <= 1
 x_26 <= 1
 x_27 <= 1
 x_28 <= 1
 x_29 <= 1
 x_30 <= 1
 x_31 <= 1
 x_32 <= 1
 x_33 <= 1
 x_34 <= 1
 x_35 <= 1
 x_36 <= 1
 x_37 <= 1
 x_38 <= 1
 x_39 <= 1
 x_40 <= 1
 x_41 <= 1
 x_42 <= 1
 x_43 <= 1
 x_44 <= 1
 x_45 <= 1
 x_46 <= 1
 x_47 <= 1
 x_48 <= 1
 x_49 <= 1
 x_50 <= 1
 x_51 <= 1
 x_52 <= 1
 x_53 <= 1
 x_54 <= 1
 x_55 <= 1
 x_56 <= 1
 x_57 <= 1
 x_58 <= 1
 x_59 <= 1
 x_60 <= 1
 x_61 <= 1
 x_62 <= 1
 x_63 <= 1
 x_64 <= 1
 x_65 <= 1
 x_66 <= 1
 x_67 <= 1
 x_68 <= 1
 x_69 <= 1
 x_70 <= 1
 x_71 <= 1
 x_72 <= 1
 x_73 <= 1
 x_74 <= 1
 x_75 <= 1
 x_76 <= 1
 x_77 <= 1
 x_78 <= 1
 x_79 <= 1
 x_80 <= 1
 x_81 <= 1
 x_82 <= 1
 x_83 <= 1
 x_84 <= 1
 x_85 <= 1
 x_86 <= 1
 x_87 <= 1
 x_88 <= 1
 x_89 <= 1
 x_90 <= 1
 x_91 <= 1
 x_92 <= 1
 x_93 <= 1
 x_94 <= 1
 x_95 <= 1
 x_96 <= 1
 x_97 <= 1
 x_98 <= 1
 x_99 <= 1
 x_100 <= 1
 x_101 <= 1
 x_102 <= 1
 x_103 <= 1
 x_104 <= 1
 x_105 <= 1
 x_106 <= 1
 x_107 <= 1
 x_108 <= 1
 x_109 <= 1
 x_110 <= 1
 x_111 <= 1
 x_112 <= 1
 x_113 <= 1
 x_114 <= 1
 x_115 <= 1
 x_116 <= 1
 x_117 <= 1
 x_118 <= 1
 x_119 <= 1
 x_120 <= 1
 x_121 <= 1
 x_122 <= 1
 x_123 <= 1
 x_124 <= 1
 x_125 <= 1
 x_126 <= 1
 x_127 <= 1
 x_128 <= 1
 x_129 <= 1
 x_130 <= 1
 x_131 <= 1
 x_132 <= 1
 x_133 <= 1
 x_134 <= 1
 x_135 <= 1
 x_136 <= 1
 x_137 <= 1
 x_138 <= 1
 x_139 <= 1
 x_140 <= 1
 x_141 <= 1
 x_142 <= 1
 x_143 <= 1
 x_144 <= 1
 x_145 <= 1
 x_146 <= 1
 x_147 <= 1
 x_148 <= 1
 x_149 <= 1
 x_150 <= 1
 x_151 <= 1
 x_152 <= 1
 x_153 <= 1
 x_154 <= 1
 x_155 <= 1
 x_156 <= 1
 x_157 <= 1
 x_158 <= 1
 x_159 <= 1
 x_160 <= 1
 x_161 <= 1
 x_162 <= 1
 x_163 <= 1
 x_164 <= 1
 x_165 <= 1
 x_166 <= 1
End
